(declare-fun bvlambda_4_ () (_ BitVec 5))
(declare-fun a143 () (Array (_ BitVec 1) (_ BitVec 10)))
(assert
(let (($e13 (_ bv416 9)))
(let (($e33 (_ bv416 10)))
(let (($e225 (store a143 false $e33)))
(let (($e331 (   extract      bvlambda_4_)))
(let (($e332 (store $e225 $e331        $e33 )))
(let (($e333 (select $e332 true       )))
(let (($e479 (select $e225(bvnot $e331))))
(let (($e482      (= $e333        $e479 )         ))
                  (=        $e482  false)
                                                                                                                                                                                                                                                                                                                                                                                                                                                                                                                                                                                                                                                                                                                                                                                                                                                                                                                                                                                                                                                                                                                                                                                                                                                                                                                                                                                                                                                                                                                                                                                                                                                                                                                                                                                                                                                                                                                                                                                                                                                                                                                                                                                 )  )                                                                                                                                                 )))                                                                                                         )                                                                                                                                                        )                   )            )
